100000000000000000000000000000000010000001000000010000000001100000000011000000000000000000000000000100000000000000000000000010000000000000000000000001000000000000000000000000010000001000000000000000010000001000000000000000000000000000000000000000001000000010000000000000000100000000000000000000000010000001000000010000000001100000000011001000000000010000110000000000010000001000000000000000010000001000000000000000001000000010000000000000000000000100001100000000000000000100001100000000000010000001000000000000000000000100001100000000000000000100001100000000000000000100001100010000000001100000000011010000000001100000000011